15
2 0 8
2 1 4
3 1 3
4 0 2
4 3 5
5 2 5
5 4 2
6 1 1
6 2 8
6 5 6
7 6 9
8 0 1
8 4 6
8 5 3
8 6 7
9 0 5
9 1 3
9 5 4
9 7 8
9 8 8
10 0 2
10 4 3
10 5 4
10 8 3
11 0 7
11 3 2
11 5 2
11 6 2
11 10 9
12 0 9
12 1 10
12 2 3
12 3 3
12 4 8
12 5 8
12 7 6
12 8 3
12 9 7
13 0 1
13 1 1
13 2 4
13 3 2
13 4 7
13 9 10
14 0 7
14 3 6
14 5 1
14 6 1
14 10 9
14 11 9
